cases/matpower/case3.m
ipopt
SOCW
[info | PowerModels]: extending matpower format with constant data: const_int
[info | PowerModels]: extending matpower format with constant data: const_float
[info | PowerModels]: extending matpower format with data: bus_data 3x3
[info | PowerModels]: extending matpower format with data: branch_names 3x3
[info | PowerModels]: extending matpower format with data: areas_cells 2x6
[info | PowerModels]: extending matpower format with data: areas_named_cells 2x6
[info | PowerModels]: extending matpower format with data: areas_named 2x3
[info | PowerModels]: extending matpower format with data: component 1x3
[info | PowerModels]: extending matpower format with data: areas 2x3
[info | PowerModels]: extending matpower format with constant data: const_str
[info | PowerModels]: extending matpower format with data: load_data 2x2
[info | PowerModels]: extending matpower format with data: branch_limit 3x3
[warn | PowerModels]: added zero cost function data for dclines
[info | PowerModels]: extending matpower format by appending matrix "branch_limit" in to "branch"
[info | PowerModels]: extending matpower format by appending matrix "branch_names" in to "branch"
[info | PowerModels]: extending matpower format by appending matrix "bus_data" in to "bus"
[warn | PowerModels]: no reference bus found
[warn | PowerModels]: no reference bus found, setting bus 1 as reference based on generator 1
[info | PowerModels]: removing 3 cost terms from generator 3: Float64[]
[info | PowerModels]: removing 3 cost terms from dcline 1: Float64[]

******************************************************************************
This program contains Ipopt, a library for large-scale nonlinear optimization.
 Ipopt is released as open source code under the Eclipse Public License (EPL).
         For more information visit http://projects.coin-or.org/Ipopt
******************************************************************************

This is Ipopt version 3.13.2, running with linear solver mumps.
NOTE: Other linear solvers might be more efficient (see Ipopt documentation).

Number of nonzeros in equality constraint Jacobian...:       71
Number of nonzeros in inequality constraint Jacobian.:       54
Number of nonzeros in Lagrangian Hessian.............:       23

Total number of variables............................:       30
                     variables with only lower bounds:        0
                variables with lower and upper bounds:       30
                     variables with only upper bounds:        0
Total number of equality constraints.................:       19
Total number of inequality constraints...............:       21
        inequality constraints with only lower bounds:        9
   inequality constraints with lower and upper bounds:        0
        inequality constraints with only upper bounds:       12

iter    objective    inf_pr   inf_du lg(mu)  ||d||  lg(rg) alpha_du alpha_pr  ls
   0  6.3949934e+00 1.20e+00 2.46e+01  -1.0 0.00e+00    -  0.00e+00 0.00e+00   0
   1  1.5303669e+01 1.19e+00 2.47e+01  -1.0 1.97e+00    -  6.18e-03 9.66e-03h  1
   2  9.3861642e+01 1.12e+00 2.30e+01  -1.0 1.86e+00    -  2.38e-02 6.17e-02h  1
   3  1.8295339e+02 1.06e+00 2.18e+01  -1.0 1.72e+00    -  2.10e-01 5.29e-02h  1
   4  3.3166676e+03 3.06e-01 4.08e+01  -1.0 1.64e+00    -  1.99e-01 7.10e-01h  1
   5  4.0927210e+03 1.97e-01 1.32e+01  -1.0 4.69e-01    -  5.96e-01 3.56e-01h  1
   6  4.6882837e+03 1.21e-01 6.52e+00  -1.0 3.00e-01    -  9.90e-01 3.88e-01h  1
   7  4.8089901e+03 1.06e-01 1.53e+01  -1.0 2.36e-01    -  3.13e-01 1.22e-01h  1
   8  5.7349659e+03 2.31e-02 1.65e+01  -1.0 2.20e-01    -  2.42e-01 1.00e+00h  1
   9  5.7497148e+03 3.35e-16 2.75e+00  -1.0 5.13e-02    -  8.58e-01 1.00e+00h  1
iter    objective    inf_pr   inf_du lg(mu)  ||d||  lg(rg) alpha_du alpha_pr  ls
  10  5.7496216e+03 4.09e-16 1.52e-01  -1.0 7.04e-02    -  1.00e+00 1.00e+00f  1
  11  5.7473779e+03 1.39e-16 2.18e-02  -1.7 2.66e-02    -  1.00e+00 1.00e+00f  1
  12  5.7468165e+03 3.75e-16 6.51e-03  -2.5 1.37e-02    -  1.00e+00 1.00e+00f  1
  13  5.7467325e+03 2.32e-06 1.06e-02  -3.8 8.53e-03    -  9.87e-01 1.00e+00h  1
  14  5.7467277e+03 2.78e-16 2.53e-03  -3.8 3.79e-03    -  1.00e+00 1.00e+00h  1
  15  5.7467271e+03 2.36e-16 7.11e-05  -3.8 6.46e-04    -  1.00e+00 1.00e+00h  1
  16  5.7467219e+03 3.33e-16 2.59e-05  -5.7 3.91e-04    -  1.00e+00 1.00e+00f  1
  17  5.7467219e+03 3.37e-16 1.74e-08  -5.7 9.99e-06    -  1.00e+00 1.00e+00h  1
  18  5.7467218e+03 2.62e-16 3.98e-09  -8.6 4.84e-06    -  1.00e+00 1.00e+00f  1

Number of Iterations....: 18

                                   (scaled)                 (unscaled)
Objective...............:   1.1493443694918828e+03    5.7467218474594138e+03
Dual infeasibility......:   3.9831960793770585e-09    1.9915980396885293e-08
Constraint violation....:   2.6194324487249787e-16    2.6194324487249787e-16
Complementarity.........:   3.0887402176114295e-09    1.5443701088057148e-08
Overall NLP error.......:   3.9831960793770585e-09    1.9915980396885293e-08


Number of objective function evaluations             = 19
Number of objective gradient evaluations             = 19
Number of equality constraint evaluations            = 19
Number of inequality constraint evaluations          = 19
Number of equality constraint Jacobian evaluations   = 19
Number of inequality constraint Jacobian evaluations = 19
Number of Lagrangian Hessian evaluations             = 18
Total CPU secs in IPOPT (w/o function evaluations)   =      0.262
Total CPU secs in NLP function evaluations           =      0.207

EXIT: Optimal Solution Found.
Time to Solution........:1.2091469764709473
